# Objective value = 1.9524148235472867e+03
x[0] 0
x[1] 0
x[2] 0
x[3] 1
x[4] 0
x[5] 0
x[6] 1
x[7] 1
x[8] 0
x[9] 0
x[10] 1
x[11] 0
x[12] 0
x[13] 0
x[14] 0
x[15] 1
x[16] 0
x[17] 1
x[18] 0
x[19] 1
x[20] 1
x[21] 1
x[22] 1
x[23] 1
x[24] 0
x[25] 1
x[26] 1
x[27] 0
x[28] 0
x[29] 1
x[30] 1
x[31] 0
x[32] 1
x[33] 1
x[34] 1
x[35] 1
x[36] 0
x[37] 0
x[38] 1
x[39] 1
x[40] 1
x[41] 1
x[42] 1
x[43] 0
x[44] 0
x[45] 0
x[46] 1
x[47] 1
x[48] 1
x[49] 1
x[50] 0
x[51] 1
x[52] 0
x[53] 0
x[54] 0
x[55] 0
x[56] 0
x[57] 1
x[58] 1
x[59] 1
x[60] 0
x[61] 1
x[62] 1
x[63] 0
x[64] 0
x[65] 1
x[66] 0
x[67] 1
x[68] 0
x[69] 1
x[70] 0
x[71] 1
x[72] 1
x[73] 0
x[74] 0
x[75] 0
x[76] 0
x[77] 0
x[78] 0
x[79] 0
x[80] 1
x[81] 0
x[82] 0
x[83] 1
x[84] 1
x[85] 0
x[86] 1
x[87] 0
x[88] 1
x[89] 1
x[90] 0
x[91] 1
x[92] 1
x[93] 0
x[94] 0
x[95] 0
x[96] 0
x[97] 0
x[98] 1
x[99] 1
x[100] 1
x[101] 1
x[102] 1
x[103] 1
x[104] 1
x[105] 1
x[106] 0
x[107] 0
x[108] 1
x[109] 0
x[110] 1
x[111] 0
x[112] 0
x[113] 0
x[114] 0
x[115] 0
x[116] 0
x[117] 1
x[118] 0
x[119] 1
x[120] 1
x[121] 0
x[122] 1
x[123] 1
x[124] 0
x[125] 1
x[126] 0
x[127] 1
x[128] 0
x[129] 0
x[130] 1
x[131] 0
x[132] 0
x[133] 0
x[134] 1
x[135] 1
x[136] 1
x[137] 1
x[138] 0
x[139] 0
x[140] 1
x[141] 1
x[142] 0
x[143] 0
x[144] 1
x[145] 1
x[146] 1
x[147] 1
x[148] 1
x[149] 1
x[150] 0
x[151] 1
x[152] 1
x[153] 1
x[154] 1
x[155] 0
x[156] 1
x[157] 0
x[158] 1
x[159] 1
x[160] 1
x[161] 0
x[162] 0
x[163] 0
x[164] 1
x[165] 1
x[166] 1
x[167] 0
x[168] 0
x[169] 1
x[170] 1
x[171] 1
x[172] 0
x[173] 0
x[174] 0
x[175] 1
x[176] 0
x[177] 1
x[178] 1
x[179] 0
x[180] 0
x[181] 1
x[182] 1
x[183] 0
x[184] 1
x[185] 1
x[186] 1
x[187] 1
x[188] 1
x[189] 0
x[190] 1
x[191] 1
x[192] 0
x[193] 1
x[194] 1
x[195] 1
x[196] 0
x[197] 1
x[198] 0
x[199] 1
x[200] 0
x[201] 1
x[202] 0
x[203] 1
x[204] 1
x[205] 1
x[206] 0
x[207] 1
x[208] 0
x[209] 1
x[210] 1
x[211] 0
x[212] 1
x[213] 0
x[214] 0
x[215] 0
x[216] 1
x[217] 1
x[218] 0
x[219] 1
x[220] 0
x[221] 1
x[222] 1
x[223] 0
x[224] 0
x[225] 1
x[226] 0
x[227] 1
x[228] 1
x[229] 1
x[230] 1
x[231] 1
x[232] 1
x[233] 0
x[234] 0
x[235] 1
x[236] 0
x[237] 0
x[238] 1
x[239] 0
x[240] 1
x[241] 1
x[242] 0
x[243] 0
x[244] 1
x[245] 1
x[246] 1
x[247] 1
x[248] 1
x[249] 0
x[250] 1
x[251] 1
x[252] 1
x[253] 1
x[254] 0
x[255] 0
x[256] 1
x[257] 0
x[258] 1
x[259] 0
x[260] 1
x[261] 1
x[262] 1
x[263] 1
x[264] 0
x[265] 1
x[266] 0
x[267] 0
x[268] 0
x[269] 0
x[270] 1
x[271] 0
x[272] 1
x[273] 0
x[274] 0
x[275] 1
x[276] 1
x[277] 1
x[278] 0
x[279] 1
x[280] 1
x[281] 1
x[282] 1
x[283] 0
x[284] 1
x[285] 1
x[286] 1
x[287] 1
x[288] 0
x[289] 0
x[290] 1
x[291] 1
x[292] 1
x[293] 0
x[294] 1
x[295] 1
x[296] 1
x[297] 1
x[298] 1
x[299] 0
x[300] 1
x[301] 1
x[302] 0
x[303] 1
x[304] 1
x[305] 1
x[306] 0
x[307] 0
x[308] 1
x[309] 1
x[310] 0
x[311] 0
x[312] 0
x[313] 0
x[314] 0
x[315] 0
x[316] 1
x[317] 1
x[318] 1
x[319] 0
x[320] 0
x[321] 0
x[322] 1
x[323] 1
x[324] 1
x[325] 1
x[326] 1
x[327] 1
x[328] 1
x[329] 0
x[330] 0
x[331] 1
x[332] 0
x[333] 0
x[334] 1
x[335] 0
x[336] 1
x[337] 0
x[338] 0
x[339] 1
x[340] 0
x[341] 1
x[342] 1
x[343] 1
x[344] 0
x[345] 0
x[346] 1
x[347] 1
x[348] 1
x[349] 1
x[350] 0
x[351] 1
x[352] 0
x[353] 1
x[354] 1
x[355] 1
x[356] 1
x[357] 0
x[358] 0
x[359] 1
x[360] 1
x[361] 1
x[362] 0
x[363] 0
x[364] 1
x[365] 1
x[366] 0
x[367] 1
x[368] 0
x[369] 0
x[370] 1
x[371] 0
x[372] 1
x[373] 1
x[374] 0
x[375] 1
x[376] 1
x[377] 0
x[378] 1
x[379] 1
x[380] 1
x[381] 1
x[382] 1
x[383] 0
x[384] 0
x[385] 1
x[386] 1
x[387] 0
x[388] 0
x[389] 0
x[390] 0
x[391] 0
x[392] 1
x[393] 0
x[394] 1
x[395] 1
x[396] 0
x[397] 1
x[398] 0
x[399] 1
x[400] 0
x[401] 0
x[402] 1
x[403] 1
x[404] 0
x[405] 0
x[406] 0
x[407] 1
x[408] 1
x[409] 1
x[410] 1
x[411] 0
x[412] 0
x[413] 1
x[414] 0
x[415] 1
x[416] 1
x[417] 1
x[418] 1
x[419] 1
x[420] 1
x[421] 0
x[422] 0
x[423] 1
x[424] 1
x[425] 0
x[426] 0
x[427] 1
x[428] 0
x[429] 1
x[430] 0
x[431] 1
x[432] 1
x[433] 1
x[434] 1
x[435] 1
x[436] 1
x[437] 1
x[438] 1
x[439] 1
x[440] 1
x[441] 0
x[442] 1
x[443] 0
x[444] 1
x[445] 1
x[446] 1
x[447] 1
x[448] 1
x[449] 1
x[450] 1
x[451] 1
x[452] 1
x[453] 0
x[454] 1
x[455] 0
x[456] 0
x[457] 0
x[458] 0
x[459] 1
x[460] 0
x[461] 0
x[462] 1
x[463] 1
x[464] 1
x[465] 0
x[466] 1
x[467] 0
x[468] 1
x[469] 0
x[470] 1
x[471] 0
x[472] 1
x[473] 1
x[474] 0
x[475] 1
x[476] 1
x[477] 1
x[478] 1
x[479] 0
x[480] 1
x[481] 1
x[482] 1
x[483] 1
x[484] 1
x[485] 1
x[486] 1
x[487] 1
x[488] 0
x[489] 1
x[490] 1
x[491] 0
x[492] 0
x[493] 0
x[494] 0
x[495] 1
x[496] 0
x[497] 0
x[498] 1
x[499] 0
x[500] 1
x[501] 0
x[502] 1
x[503] 1
x[504] 0
x[505] 1
x[506] 1
x[507] 0
x[508] 1
x[509] 1
x[510] 0
x[511] 0
x[512] 0
x[513] 1
x[514] 1
x[515] 0
x[516] 0
x[517] 0
x[518] 0
x[519] 1
x[520] 1
x[521] 0
x[522] 0
x[523] 1
x[524] 1
x[525] 1
x[526] 0
x[527] 1
x[528] 0
x[529] 1
x[530] 0
x[531] 1
x[532] 1
x[533] 0
x[534] 1
x[535] 0
x[536] 1
x[537] 1
x[538] 1
x[539] 0
x[540] 0
x[541] 1
x[542] 0
x[543] 0
x[544] 0
x[545] 0
x[546] 0
x[547] 1
x[548] 1
x[549] 1
x[550] 0
x[551] 0
x[552] 1
x[553] 1
x[554] 1
x[555] 1
x[556] 0
x[557] 1
x[558] 0
x[559] 1
x[560] 1
x[561] 0
x[562] 1
x[563] 0
x[564] 0
x[565] 0
x[566] 0
x[567] 1
x[568] 1
x[569] 1
x[570] 0
x[571] 0
x[572] 1
x[573] 1
x[574] 0
x[575] 1
x[576] 1
x[577] 1
x[578] 1
x[579] 0
x[580] 0
x[581] 1
x[582] 1
x[583] 0
x[584] 1
x[585] 0
x[586] 0
x[587] 0
x[588] 1
x[589] 0
x[590] 1
x[591] 1
x[592] 0
x[593] 0
x[594] 0
x[595] 1
x[596] 0
x[597] 0
x[598] 1
x[599] 0
x[600] 0
x[601] 1
x[602] 1
x[603] 1
x[604] 0
x[605] 0
x[606] 1
x[607] 0
x[608] 1
x[609] 0
x[610] 0
x[611] 1
x[612] 0
x[613] 1
x[614] 0
x[615] 0
x[616] 1
x[617] 1
x[618] 0
x[619] 0
x[620] 0
x[621] 0
x[622] 1
x[623] 0
x[624] 0
x[625] 0
x[626] 1
x[627] 1
x[628] 0
x[629] 1
x[630] 1
x[631] 0
x[632] 1
x[633] 1
x[634] 0
x[635] 0
x[636] 1
x[637] 0
x[638] 1
x[639] 1
x[640] 1
x[641] 0
x[642] 0
x[643] 0
x[644] 1
x[645] 1
x[646] 0
x[647] 1
x[648] 0
x[649] 0
x[650] 1
x[651] 1
x[652] 1
x[653] 1
x[654] 0
x[655] 1
x[656] 0
x[657] 0
x[658] 0
x[659] 1
x[660] 0
x[661] 1
x[662] 1
x[663] 1
x[664] 1
x[665] 1
x[666] 0
x[667] 0
x[668] 0
x[669] 1
x[670] 0
x[671] 1
x[672] 1
x[673] 1
x[674] 0
x[675] 0
x[676] 1
x[677] 1
x[678] 0
x[679] 1
x[680] 1
x[681] 0
x[682] 1
x[683] 1
x[684] 0
x[685] 1
x[686] 0
x[687] 0
x[688] 0
x[689] 1
x[690] 0
x[691] 0
x[692] 1
x[693] 0
x[694] 1
x[695] 1
x[696] 1
x[697] 0
x[698] 1
x[699] 0
x[700] 0
x[701] 0
x[702] 1
x[703] 0
x[704] 0
x[705] 1
x[706] 0
x[707] 1
x[708] 0
x[709] 0
x[710] 0
x[711] 1
x[712] 1
x[713] 1
x[714] 1
x[715] 1
x[716] 0
x[717] 0
x[718] 0
x[719] 1
x[720] 1
x[721] 0
x[722] 1
x[723] 1
x[724] 1
x[725] 0
x[726] 0
x[727] 0
x[728] 0
x[729] 0
x[730] 0
x[731] 1
x[732] 0
x[733] 0
x[734] 0
x[735] 1
x[736] 0
x[737] 0
x[738] 1
x[739] 1
x[740] 0
x[741] 0
x[742] 1
x[743] 1
x[744] 1
x[745] 1
x[746] 1
x[747] 1
x[748] 1
x[749] 0
x[750] 0
x[751] 0
x[752] 1
x[753] 1
x[754] 1
x[755] 0
x[756] 1
x[757] 1
x[758] 0
x[759] 1
x[760] 0
x[761] 1
x[762] 1
x[763] 0
x[764] 0
x[765] 1
x[766] 1
x[767] 1
x[768] 1
x[769] 0
x[770] 1
x[771] 1
x[772] 0
x[773] 0
x[774] 0
x[775] 0
x[776] 1
x[777] 1
x[778] 0
x[779] 1
x[780] 1
x[781] 0
x[782] 1
x[783] 0
x[784] 1
x[785] 0
x[786] 0
x[787] 1
x[788] 0
x[789] 1
x[790] 0
x[791] 1
x[792] 0
x[793] 0
x[794] 0
x[795] 1
x[796] 1
x[797] 1
x[798] 0
x[799] 1
x[800] 0
x[801] 1
x[802] 1
x[803] 0
x[804] 0
x[805] 1
x[806] 0
x[807] 1
x[808] 0
x[809] 1
x[810] 0
x[811] 1
x[812] 1
x[813] 1
x[814] 0
x[815] 0
x[816] 1
x[817] 1
x[818] 1
x[819] 1
x[820] 1
x[821] 1
x[822] 1
x[823] 0
x[824] 0
x[825] 1
x[826] 0
x[827] 1
x[828] 0
x[829] 0
x[830] 0
x[831] 0
x[832] 0
x[833] 1
x[834] 1
x[835] 0
x[836] 1
x[837] 1
x[838] 0
x[839] 1
x[840] 0
x[841] 1
x[842] 1
x[843] 1
x[844] 1
x[845] 1
x[846] 1
x[847] 0
x[848] 1
x[849] 1
x[850] 0
x[851] 1
x[852] 1
x[853] 1
x[854] 0
x[855] 1
x[856] 1
x[857] 1
x[858] 1
x[859] 1
x[860] 1
x[861] 1
x[862] 1
x[863] 1
x[864] 1
x[865] 1
x[866] 1
x[867] 1
x[868] 0
x[869] 0
x[870] 1
x[871] 0
x[872] 0
x[873] 0
x[874] 0
x[875] 1
x[876] 0
x[877] 1
x[878] 1
x[879] 0
x[880] 1
x[881] 0
x[882] 1
x[883] 1
x[884] 0
x[885] 1
x[886] 0
x[887] 1
x[888] 0
x[889] 1
x[890] 0
x[891] 1
x[892] 1
x[893] 1
x[894] 1
x[895] 0
x[896] 0
x[897] 1
x[898] 1
x[899] 1
x[900] 1
x[901] 1
x[902] 1
x[903] 1
x[904] 1
x[905] 1
x[906] 1
x[907] 0
x[908] 1
x[909] 0
x[910] 0
x[911] 1
x[912] 0
x[913] 1
x[914] 1
x[915] 1
x[916] 0
x[917] 1
x[918] 0
x[919] 0
x[920] 1
x[921] 0
x[922] 1
x[923] 1
x[924] 1
x[925] 1
x[926] 0
x[927] 0
x[928] 1
x[929] 1
x[930] 1
x[931] 0
x[932] 1
x[933] 0
x[934] 1
x[935] 0
x[936] 1
x[937] 1
x[938] 1
x[939] 1
x[940] 1
x[941] 1
x[942] 1
x[943] 0
x[944] 0
x[945] 0
x[946] 1
x[947] 0
x[948] 0
x[949] 0
x[950] 1
x[951] 0
x[952] 0
x[953] 0
x[954] 0
x[955] 1
x[956] 1
x[957] 0
x[958] 0
x[959] 0
x[960] 0
x[961] 0
x[962] 1
x[963] 0
x[964] 1
x[965] 0
x[966] 0
x[967] 0
x[968] 1
x[969] 1
x[970] 0
x[971] 1
x[972] 0
x[973] 0
x[974] 0
x[975] 0
x[976] 0
x[977] 1
x[978] 1
x[979] 1
x[980] 0
x[981] 1
x[982] 1
x[983] 0
x[984] 1
x[985] 0
x[986] 0
x[987] 0
x[988] 1
x[989] 1
x[990] 1
x[991] 1
x[992] 1
x[993] 0
x[994] 1
x[995] 1
x[996] 0
x[997] 0
x[998] 0
x[999] 1
